proyfinal/src/viki/013/experimentInOfficeAgust.take6.output/63793622-ddea-40d7-950a-65455fd8350f.als.dat
{'cnf.clauses': '118081',
 'cnf.totvars': '69608',
 'conflict literals': '16',
 'conflicts': '9',
 'decisions': '5373',
 'memused.mb': '15.96',
 'outcome': 'UNSAT',
 'propagations': '27120',
 'restarts': '1',
 'solver.msecs': 30,
 'task.msecs': 84}
