proyfinal/src/viki/013/experimentInOfficeAgust.take6.output/63793622-ddea-40d7-950a-65455fd8350f.als.out
Reading from standard input... Use '--help' for help.
============================[ Problem Statistics ]=============================
|                                                                             |
|  Number of variables:         69608                                         |
|  Number of clauses:          118081                                         |
|  Parse time:                   0.02 s                                       |
|                                                                             |
============================[ Search Statistics ]==============================
| Conflicts |          ORIGINAL         |          LEARNT          | Progress |
|           |    Vars  Clauses Literals |    Limit  Clauses Lit/Cl |          |
===============================================================================
===============================================================================
restarts              : 1
conflicts             : 9              (297 /sec)
decisions             : 5373           (0.00 % random) (177023 /sec)
propagations          : 27120          (893516 /sec)
conflict literals     : 16             (0.00 % deleted)
Memory used           : 15.96 MB
CPU time              : 0.030352 s

UNSATISFIABLE
